139706
0,86,43,65,58,9,26,27,75,73,101,13,46,60,102,3,14,74,34,62,31,6,83,52,81,71,50,99,98,67,49,25,33,82,56,79,88,92,11,28,29,54,4,51,64,30,12,87,68,97,105,96,7,91,22,8,18,41,80,5,39,55,19,15,63,89,16,20,76,45,85,24,44,61,21,1,32,38,36,48,17,69,100,94,53,70,35,72,47,84,10,40,66,103,37,104,2,93,77,95,59,90,78,42,23,57,0